\* GDO *\
Minimize
OBJ: 488 X0 + 411 X1 + 149 X10 + 748 X100 + 423 X101 + 921 X102 + 1773 X103
 + 993 X104 + 319 X105 + 667 X106 + 390 X107 + 660 X108 + 172 X109 + 449 X11
 + 649 X110 + 343 X111 + 547 X112 + 480 X113 + 195 X114 + 288 X115 + 287 X116
 + 682 X117 + 322 X118 + 301 X119 + 73 X12 + 202 X120 + 567 X121 + 251 X122
 + 408 X123 + 277 X124 + 302 X125 + 263 X126 + 123 X127 + 169 X128 + 188 X129
 + 481 X13 + 455 X130 + 625 X131 + 656 X132 + 321 X133 + 792 X134 + 818 X135
 + 249 X136 + 262 X137 + 488 X138 + 307 X139 + 339 X14 + 339 X140 + 579 X141
 + 377 X142 + 422 X143 + 222 X144 + 344 X145 + 657 X146 + 389 X147 + 626 X148
 + 688 X149 + 86 X15 + 514 X150 + 282 X151 + 517 X152 + 397 X153 + 881 X154
 + 281 X155 + 678 X156 + 206 X157 + 778 X158 + 224 X159 + 131 X16 + 673 X160
 + 173 X161 + 319 X162 + 123 X163 + 494 X164 + 363 X165 + 288 X166 + 383 X167
 + 237 X168 + 704 X169 + 320 X17 + 428 X170 + 389 X171 + 196 X172 + 595 X173
 + 345 X174 + 386 X175 + 245 X176 + 94 X177 + 285 X178 + 228 X179 + 60 X18
 + 294 X180 + 219 X181 + 354 X182 + 650 X183 + 595 X184 + 219 X185 + 477 X186
 + 659 X187 + 88 X188 + 105 X189 + 133 X19 + 305 X190 + 140 X191 + 361 X192
 + 781 X193 + 275 X194 + 97 X195 + 238 X196 + 151 X197 + 989 X198 + 206 X199
 + 479 X2 + 75 X20 + 401 X200 + 746 X201 + 414 X202 + 304 X203 + 286 X204
 + 620 X205 + 617 X206 + 476 X207 + 230 X21 + 62 X22 + 186 X23 + 389 X24
 + 103 X25 + 253 X26 + 426 X27 + 454 X28 + 123 X29 + 445 X3 + 624 X30
 + 546 X31 + 275 X32 + 202 X33 + 331 X34 + 159 X35 + 137 X36 + 482 X37
 + 179 X38 + 396 X39 + 458 X4 + 80 X40 + 189 X41 + 801 X42 + 238 X43 + 481 X44
 + 462 X45 + 312 X46 + 476 X47 + 303 X48 + 338 X49 + 196 X5 + 651 X50
 + 644 X51 + 1280 X52 + 745 X53 + 116 X54 + 779 X55 + 394 X56 + 782 X57
 + 1126 X58 + 546 X59 + 587 X6 + 456 X60 + 586 X61 + 425 X62 + 783 X63
 + 653 X64 + 298 X65 + 485 X66 + 516 X67 + 722 X68 + 313 X69 + 230 X7
 + 570 X70 + 511 X71 + 362 X72 + 564 X73 + 303 X74 + 755 X75 + 942 X76
 + 438 X77 + 495 X78 + 123 X79 + 273 X8 + 461 X80 + 414 X81 + 1040 X82
 + 637 X83 + 868 X84 + 793 X85 + 579 X86 + 493 X87 + 310 X88 + 288 X89
 + 213 X9 + 449 X90 + 975 X91 + 670 X92 + 750 X93 + 863 X94 + 567 X95
 + 712 X96 + 171 X97 + 387 X98 + 1046 X99
Subject To
ass0: Y208 + Y260 + Y312 + Y364 = 27
ass1: Y209 + Y261 + Y313 + Y365 = 23
ass10: Y218 + Y270 + Y322 + Y374 = 20
ass11: Y219 + Y271 + Y323 + Y375 = 15
ass12: Y220 + Y272 + Y324 + Y376 = 27
ass13: Y221 + Y273 + Y325 + Y377 = 26
ass14: Y222 + Y274 + Y326 + Y378 = 29
ass15: Y223 + Y275 + Y327 + Y379 = 23
ass16: Y224 + Y276 + Y328 + Y380 = 21
ass17: Y225 + Y277 + Y329 + Y381 = 14
ass18: Y226 + Y278 + Y330 + Y382 = 18
ass19: Y227 + Y279 + Y331 + Y383 = 12
ass2: Y210 + Y262 + Y314 + Y366 = 28
ass20: Y228 + Y280 + Y332 + Y384 = 28
ass21: Y229 + Y281 + Y333 + Y385 = 30
ass22: Y230 + Y282 + Y334 + Y386 = 34
ass23: Y231 + Y283 + Y335 + Y387 = 18
ass24: Y232 + Y284 + Y336 + Y388 = 17
ass25: Y233 + Y285 + Y337 + Y389 = 20
ass26: Y234 + Y286 + Y338 + Y390 = 17
ass27: Y235 + Y287 + Y339 + Y391 = 19
ass28: Y236 + Y288 + Y340 + Y392 = 11
ass29: Y237 + Y289 + Y341 + Y393 = 28
ass3: Y211 + Y263 + Y315 + Y367 = 23
ass30: Y238 + Y290 + Y342 + Y394 = 11
ass31: Y239 + Y291 + Y343 + Y395 = 14
ass32: Y240 + Y292 + Y344 + Y396 = 16
ass33: Y241 + Y293 + Y345 + Y397 = 29
ass34: Y242 + Y294 + Y346 + Y398 = 12
ass35: Y243 + Y295 + Y347 + Y399 = 18
ass36: Y244 + Y296 + Y348 + Y400 = 29
ass37: Y245 + Y297 + Y349 + Y401 = 25
ass38: Y246 + Y298 + Y350 + Y402 = 20
ass39: Y247 + Y299 + Y351 + Y403 = 26
ass4: Y212 + Y264 + Y316 + Y368 = 19
ass40: Y248 + Y300 + Y352 + Y404 = 14
ass41: Y249 + Y301 + Y353 + Y405 = 9
ass42: Y250 + Y302 + Y354 + Y406 = 17
ass43: Y251 + Y303 + Y355 + Y407 = 26
ass44: Y252 + Y304 + Y356 + Y408 = 14
ass45: Y253 + Y305 + Y357 + Y409 = 17
ass46: Y254 + Y306 + Y358 + Y410 = 20
ass47: Y255 + Y307 + Y359 + Y411 = 5
ass48: Y256 + Y308 + Y360 + Y412 = 14
ass49: Y257 + Y309 + Y361 + Y413 = 21
ass5: Y213 + Y265 + Y317 + Y369 = 17
ass50: Y258 + Y310 + Y362 + Y414 = 32
ass51: Y259 + Y311 + Y363 + Y415 = 16
ass6: Y214 + Y266 + Y318 + Y370 = 19
ass7: Y215 + Y267 + Y319 + Y371 = 14
ass8: Y216 + Y268 + Y320 + Y372 = 28
ass9: Y217 + Y269 + Y321 + Y373 = 17
b100: X100 + X152 + X204 + X48 <= 1
b101: X101 + X153 + X205 + X49 <= 1
b102: X102 + X154 + X206 + X50 <= 1
b103: X103 + X155 + X207 + X51 <= 1
b52: X0 + X104 + X156 + X52 <= 1
b53: X1 + X105 + X157 + X53 <= 1
b54: X106 + X158 + X2 + X54 <= 1
b55: X107 + X159 + X3 + X55 <= 1
b56: X108 + X160 + X4 + X56 <= 1
b57: X109 + X161 + X5 + X57 <= 1
b58: X110 + X162 + X58 + X6 <= 1
b59: X111 + X163 + X59 + X7 <= 1
b60: X112 + X164 + X60 + X8 <= 1
b61: X113 + X165 + X61 + X9 <= 1
b62: X10 + X114 + X166 + X62 <= 1
b63: X11 + X115 + X167 + X63 <= 1
b64: X116 + X12 + X168 + X64 <= 1
b65: X117 + X13 + X169 + X65 <= 1
b66: X118 + X14 + X170 + X66 <= 1
b67: X119 + X15 + X171 + X67 <= 1
b68: X120 + X16 + X172 + X68 <= 1
b69: X121 + X17 + X173 + X69 <= 1
b70: X122 + X174 + X18 + X70 <= 1
b71: X123 + X175 + X19 + X71 <= 1
b72: X124 + X176 + X20 + X72 <= 1
b73: X125 + X177 + X21 + X73 <= 1
b74: X126 + X178 + X22 + X74 <= 1
b75: X127 + X179 + X23 + X75 <= 1
b76: X128 + X180 + X24 + X76 <= 1
b77: X129 + X181 + X25 + X77 <= 1
b78: X130 + X182 + X26 + X78 <= 1
b79: X131 + X183 + X27 + X79 <= 1
b80: X132 + X184 + X28 + X80 <= 1
b81: X133 + X185 + X29 + X81 <= 1
b82: X134 + X186 + X30 + X82 <= 1
b83: X135 + X187 + X31 + X83 <= 1
b84: X136 + X188 + X32 + X84 <= 1
b85: X137 + X189 + X33 + X85 <= 1
b86: X138 + X190 + X34 + X86 <= 1
b87: X139 + X191 + X35 + X87 <= 1
b88: X140 + X192 + X36 + X88 <= 1
b89: X141 + X193 + X37 + X89 <= 1
b90: X142 + X194 + X38 + X90 <= 1
b91: X143 + X195 + X39 + X91 <= 1
b92: X144 + X196 + X40 + X92 <= 1
b93: X145 + X197 + X41 + X93 <= 1
b94: X146 + X198 + X42 + X94 <= 1
b95: X147 + X199 + X43 + X95 <= 1
b96: X148 + X200 + X44 + X96 <= 1
b97: X149 + X201 + X45 + X97 <= 1
b98: X150 + X202 + X46 + X98 <= 1
b99: X151 + X203 + X47 + X99 <= 1
xq104: - 27 X0 + Y208 <= 0
xq105: - 23 X1 + Y209 <= 0
xq106: - 28 X2 + Y210 <= 0
xq107: - 23 X3 + Y211 <= 0
xq108: - 19 X4 + Y212 <= 0
xq109: - 17 X5 + Y213 <= 0
xq110: - 19 X6 + Y214 <= 0
xq111: - 14 X7 + Y215 <= 0
xq112: - 28 X8 + Y216 <= 0
xq113: - 17 X9 + Y217 <= 0
xq114: - 20 X10 + Y218 <= 0
xq115: - 15 X11 + Y219 <= 0
xq116: - 27 X12 + Y220 <= 0
xq117: - 26 X13 + Y221 <= 0
xq118: - 29 X14 + Y222 <= 0
xq119: - 23 X15 + Y223 <= 0
xq120: - 21 X16 + Y224 <= 0
xq121: - 14 X17 + Y225 <= 0
xq122: - 18 X18 + Y226 <= 0
xq123: - 12 X19 + Y227 <= 0
xq124: - 28 X20 + Y228 <= 0
xq125: - 30 X21 + Y229 <= 0
xq126: - 34 X22 + Y230 <= 0
xq127: - 18 X23 + Y231 <= 0
xq128: - 17 X24 + Y232 <= 0
xq129: - 20 X25 + Y233 <= 0
xq130: - 17 X26 + Y234 <= 0
xq131: - 19 X27 + Y235 <= 0
xq132: - 11 X28 + Y236 <= 0
xq133: - 28 X29 + Y237 <= 0
xq134: - 11 X30 + Y238 <= 0
xq135: - 14 X31 + Y239 <= 0
xq136: - 16 X32 + Y240 <= 0
xq137: - 29 X33 + Y241 <= 0
xq138: - 12 X34 + Y242 <= 0
xq139: - 18 X35 + Y243 <= 0
xq140: - 29 X36 + Y244 <= 0
xq141: - 25 X37 + Y245 <= 0
xq142: - 20 X38 + Y246 <= 0
xq143: - 26 X39 + Y247 <= 0
xq144: - 14 X40 + Y248 <= 0
xq145: - 9 X41 + Y249 <= 0
xq146: - 17 X42 + Y250 <= 0
xq147: - 26 X43 + Y251 <= 0
xq148: - 14 X44 + Y252 <= 0
xq149: - 17 X45 + Y253 <= 0
xq150: - 20 X46 + Y254 <= 0
xq151: - 5 X47 + Y255 <= 0
xq152: - 14 X48 + Y256 <= 0
xq153: - 21 X49 + Y257 <= 0
xq154: - 32 X50 + Y258 <= 0
xq155: - 16 X51 + Y259 <= 0
xq156: - 27 X52 + Y260 <= 0
xq157: - 23 X53 + Y261 <= 0
xq158: - 28 X54 + Y262 <= 0
xq159: - 23 X55 + Y263 <= 0
xq160: - 19 X56 + Y264 <= 0
xq161: - 17 X57 + Y265 <= 0
xq162: - 19 X58 + Y266 <= 0
xq163: - 14 X59 + Y267 <= 0
xq164: - 28 X60 + Y268 <= 0
xq165: - 17 X61 + Y269 <= 0
xq166: - 20 X62 + Y270 <= 0
xq167: - 15 X63 + Y271 <= 0
xq168: - 27 X64 + Y272 <= 0
xq169: - 26 X65 + Y273 <= 0
xq170: - 29 X66 + Y274 <= 0
xq171: - 23 X67 + Y275 <= 0
xq172: - 21 X68 + Y276 <= 0
xq173: - 14 X69 + Y277 <= 0
xq174: - 18 X70 + Y278 <= 0
xq175: - 12 X71 + Y279 <= 0
xq176: - 28 X72 + Y280 <= 0
xq177: - 30 X73 + Y281 <= 0
xq178: - 34 X74 + Y282 <= 0
xq179: - 18 X75 + Y283 <= 0
xq180: - 17 X76 + Y284 <= 0
xq181: - 20 X77 + Y285 <= 0
xq182: - 17 X78 + Y286 <= 0
xq183: - 19 X79 + Y287 <= 0
xq184: - 11 X80 + Y288 <= 0
xq185: - 28 X81 + Y289 <= 0
xq186: - 11 X82 + Y290 <= 0
xq187: - 14 X83 + Y291 <= 0
xq188: - 16 X84 + Y292 <= 0
xq189: - 29 X85 + Y293 <= 0
xq190: - 12 X86 + Y294 <= 0
xq191: - 18 X87 + Y295 <= 0
xq192: - 29 X88 + Y296 <= 0
xq193: - 25 X89 + Y297 <= 0
xq194: - 20 X90 + Y298 <= 0
xq195: - 26 X91 + Y299 <= 0
xq196: - 14 X92 + Y300 <= 0
xq197: - 9 X93 + Y301 <= 0
xq198: - 17 X94 + Y302 <= 0
xq199: - 26 X95 + Y303 <= 0
xq200: - 14 X96 + Y304 <= 0
xq201: - 17 X97 + Y305 <= 0
xq202: - 20 X98 + Y306 <= 0
xq203: - 5 X99 + Y307 <= 0
xq204: - 14 X100 + Y308 <= 0
xq205: - 21 X101 + Y309 <= 0
xq206: - 32 X102 + Y310 <= 0
xq207: - 16 X103 + Y311 <= 0
xq208: - 27 X104 + Y312 <= 0
xq209: - 23 X105 + Y313 <= 0
xq210: - 28 X106 + Y314 <= 0
xq211: - 23 X107 + Y315 <= 0
xq212: - 19 X108 + Y316 <= 0
xq213: - 17 X109 + Y317 <= 0
xq214: - 19 X110 + Y318 <= 0
xq215: - 14 X111 + Y319 <= 0
xq216: - 28 X112 + Y320 <= 0
xq217: - 17 X113 + Y321 <= 0
xq218: - 20 X114 + Y322 <= 0
xq219: - 15 X115 + Y323 <= 0
xq220: - 27 X116 + Y324 <= 0
xq221: - 26 X117 + Y325 <= 0
xq222: - 29 X118 + Y326 <= 0
xq223: - 23 X119 + Y327 <= 0
xq224: - 21 X120 + Y328 <= 0
xq225: - 14 X121 + Y329 <= 0
xq226: - 18 X122 + Y330 <= 0
xq227: - 12 X123 + Y331 <= 0
xq228: - 28 X124 + Y332 <= 0
xq229: - 30 X125 + Y333 <= 0
xq230: - 34 X126 + Y334 <= 0
xq231: - 18 X127 + Y335 <= 0
xq232: - 17 X128 + Y336 <= 0
xq233: - 20 X129 + Y337 <= 0
xq234: - 17 X130 + Y338 <= 0
xq235: - 19 X131 + Y339 <= 0
xq236: - 11 X132 + Y340 <= 0
xq237: - 28 X133 + Y341 <= 0
xq238: - 11 X134 + Y342 <= 0
xq239: - 14 X135 + Y343 <= 0
xq240: - 16 X136 + Y344 <= 0
xq241: - 29 X137 + Y345 <= 0
xq242: - 12 X138 + Y346 <= 0
xq243: - 18 X139 + Y347 <= 0
xq244: - 29 X140 + Y348 <= 0
xq245: - 25 X141 + Y349 <= 0
xq246: - 20 X142 + Y350 <= 0
xq247: - 26 X143 + Y351 <= 0
xq248: - 14 X144 + Y352 <= 0
xq249: - 9 X145 + Y353 <= 0
xq250: - 17 X146 + Y354 <= 0
xq251: - 26 X147 + Y355 <= 0
xq252: - 14 X148 + Y356 <= 0
xq253: - 17 X149 + Y357 <= 0
xq254: - 20 X150 + Y358 <= 0
xq255: - 5 X151 + Y359 <= 0
xq256: - 14 X152 + Y360 <= 0
xq257: - 21 X153 + Y361 <= 0
xq258: - 32 X154 + Y362 <= 0
xq259: - 16 X155 + Y363 <= 0
xq260: - 27 X156 + Y364 <= 0
xq261: - 23 X157 + Y365 <= 0
xq262: - 28 X158 + Y366 <= 0
xq263: - 23 X159 + Y367 <= 0
xq264: - 19 X160 + Y368 <= 0
xq265: - 17 X161 + Y369 <= 0
xq266: - 19 X162 + Y370 <= 0
xq267: - 14 X163 + Y371 <= 0
xq268: - 28 X164 + Y372 <= 0
xq269: - 17 X165 + Y373 <= 0
xq270: - 20 X166 + Y374 <= 0
xq271: - 15 X167 + Y375 <= 0
xq272: - 27 X168 + Y376 <= 0
xq273: - 26 X169 + Y377 <= 0
xq274: - 29 X170 + Y378 <= 0
xq275: - 23 X171 + Y379 <= 0
xq276: - 21 X172 + Y380 <= 0
xq277: - 14 X173 + Y381 <= 0
xq278: - 18 X174 + Y382 <= 0
xq279: - 12 X175 + Y383 <= 0
xq280: - 28 X176 + Y384 <= 0
xq281: - 30 X177 + Y385 <= 0
xq282: - 34 X178 + Y386 <= 0
xq283: - 18 X179 + Y387 <= 0
xq284: - 17 X180 + Y388 <= 0
xq285: - 20 X181 + Y389 <= 0
xq286: - 17 X182 + Y390 <= 0
xq287: - 19 X183 + Y391 <= 0
xq288: - 11 X184 + Y392 <= 0
xq289: - 28 X185 + Y393 <= 0
xq290: - 11 X186 + Y394 <= 0
xq291: - 14 X187 + Y395 <= 0
xq292: - 16 X188 + Y396 <= 0
xq293: - 29 X189 + Y397 <= 0
xq294: - 12 X190 + Y398 <= 0
xq295: - 18 X191 + Y399 <= 0
xq296: - 29 X192 + Y400 <= 0
xq297: - 25 X193 + Y401 <= 0
xq298: - 20 X194 + Y402 <= 0
xq299: - 26 X195 + Y403 <= 0
xq300: - 14 X196 + Y404 <= 0
xq301: - 9 X197 + Y405 <= 0
xq302: - 17 X198 + Y406 <= 0
xq303: - 26 X199 + Y407 <= 0
xq304: - 14 X200 + Y408 <= 0
xq305: - 17 X201 + Y409 <= 0
xq306: - 20 X202 + Y410 <= 0
xq307: - 5 X203 + Y411 <= 0
xq308: - 14 X204 + Y412 <= 0
xq309: - 21 X205 + Y413 <= 0
xq310: - 32 X206 + Y414 <= 0
xq311: - 16 X207 + Y415 <= 0
Bounds
 0 <= Y208 <= 50
 0 <= Y209 <= 50
 0 <= Y210 <= 50
 0 <= Y211 <= 50
 0 <= Y212 <= 50
 0 <= Y213 <= 50
 0 <= Y214 <= 50
 0 <= Y215 <= 50
 0 <= Y216 <= 50
 0 <= Y217 <= 50
 0 <= Y218 <= 50
 0 <= Y219 <= 50
 0 <= Y220 <= 50
 0 <= Y221 <= 50
 0 <= Y222 <= 50
 0 <= Y223 <= 50
 0 <= Y224 <= 50
 0 <= Y225 <= 50
 0 <= Y226 <= 50
 0 <= Y227 <= 50
 0 <= Y228 <= 50
 0 <= Y229 <= 50
 0 <= Y230 <= 50
 0 <= Y231 <= 50
 0 <= Y232 <= 50
 0 <= Y233 <= 50
 0 <= Y234 <= 50
 0 <= Y235 <= 50
 0 <= Y236 <= 50
 0 <= Y237 <= 50
 0 <= Y238 <= 50
 0 <= Y239 <= 50
 0 <= Y240 <= 50
 0 <= Y241 <= 50
 0 <= Y242 <= 50
 0 <= Y243 <= 50
 0 <= Y244 <= 50
 0 <= Y245 <= 50
 0 <= Y246 <= 50
 0 <= Y247 <= 50
 0 <= Y248 <= 50
 0 <= Y249 <= 50
 0 <= Y250 <= 50
 0 <= Y251 <= 50
 0 <= Y252 <= 50
 0 <= Y253 <= 50
 0 <= Y254 <= 50
 0 <= Y255 <= 50
 0 <= Y256 <= 50
 0 <= Y257 <= 50
 0 <= Y258 <= 50
 0 <= Y259 <= 50
 0 <= Y260 <= 50
 0 <= Y261 <= 50
 0 <= Y262 <= 50
 0 <= Y263 <= 50
 0 <= Y264 <= 50
 0 <= Y265 <= 50
 0 <= Y266 <= 50
 0 <= Y267 <= 50
 0 <= Y268 <= 50
 0 <= Y269 <= 50
 0 <= Y270 <= 50
 0 <= Y271 <= 50
 0 <= Y272 <= 50
 0 <= Y273 <= 50
 0 <= Y274 <= 50
 0 <= Y275 <= 50
 0 <= Y276 <= 50
 0 <= Y277 <= 50
 0 <= Y278 <= 50
 0 <= Y279 <= 50
 0 <= Y280 <= 50
 0 <= Y281 <= 50
 0 <= Y282 <= 50
 0 <= Y283 <= 50
 0 <= Y284 <= 50
 0 <= Y285 <= 50
 0 <= Y286 <= 50
 0 <= Y287 <= 50
 0 <= Y288 <= 50
 0 <= Y289 <= 50
 0 <= Y290 <= 50
 0 <= Y291 <= 50
 0 <= Y292 <= 50
 0 <= Y293 <= 50
 0 <= Y294 <= 50
 0 <= Y295 <= 50
 0 <= Y296 <= 50
 0 <= Y297 <= 50
 0 <= Y298 <= 50
 0 <= Y299 <= 50
 0 <= Y300 <= 50
 0 <= Y301 <= 50
 0 <= Y302 <= 50
 0 <= Y303 <= 50
 0 <= Y304 <= 50
 0 <= Y305 <= 50
 0 <= Y306 <= 50
 0 <= Y307 <= 50
 0 <= Y308 <= 50
 0 <= Y309 <= 50
 0 <= Y310 <= 50
 0 <= Y311 <= 50
 0 <= Y312 <= 50
 0 <= Y313 <= 50
 0 <= Y314 <= 50
 0 <= Y315 <= 50
 0 <= Y316 <= 50
 0 <= Y317 <= 50
 0 <= Y318 <= 50
 0 <= Y319 <= 50
 0 <= Y320 <= 50
 0 <= Y321 <= 50
 0 <= Y322 <= 50
 0 <= Y323 <= 50
 0 <= Y324 <= 50
 0 <= Y325 <= 50
 0 <= Y326 <= 50
 0 <= Y327 <= 50
 0 <= Y328 <= 50
 0 <= Y329 <= 50
 0 <= Y330 <= 50
 0 <= Y331 <= 50
 0 <= Y332 <= 50
 0 <= Y333 <= 50
 0 <= Y334 <= 50
 0 <= Y335 <= 50
 0 <= Y336 <= 50
 0 <= Y337 <= 50
 0 <= Y338 <= 50
 0 <= Y339 <= 50
 0 <= Y340 <= 50
 0 <= Y341 <= 50
 0 <= Y342 <= 50
 0 <= Y343 <= 50
 0 <= Y344 <= 50
 0 <= Y345 <= 50
 0 <= Y346 <= 50
 0 <= Y347 <= 50
 0 <= Y348 <= 50
 0 <= Y349 <= 50
 0 <= Y350 <= 50
 0 <= Y351 <= 50
 0 <= Y352 <= 50
 0 <= Y353 <= 50
 0 <= Y354 <= 50
 0 <= Y355 <= 50
 0 <= Y356 <= 50
 0 <= Y357 <= 50
 0 <= Y358 <= 50
 0 <= Y359 <= 50
 0 <= Y360 <= 50
 0 <= Y361 <= 50
 0 <= Y362 <= 50
 0 <= Y363 <= 50
 0 <= Y364 <= 50
 0 <= Y365 <= 50
 0 <= Y366 <= 50
 0 <= Y367 <= 50
 0 <= Y368 <= 50
 0 <= Y369 <= 50
 0 <= Y370 <= 50
 0 <= Y371 <= 50
 0 <= Y372 <= 50
 0 <= Y373 <= 50
 0 <= Y374 <= 50
 0 <= Y375 <= 50
 0 <= Y376 <= 50
 0 <= Y377 <= 50
 0 <= Y378 <= 50
 0 <= Y379 <= 50
 0 <= Y380 <= 50
 0 <= Y381 <= 50
 0 <= Y382 <= 50
 0 <= Y383 <= 50
 0 <= Y384 <= 50
 0 <= Y385 <= 50
 0 <= Y386 <= 50
 0 <= Y387 <= 50
 0 <= Y388 <= 50
 0 <= Y389 <= 50
 0 <= Y390 <= 50
 0 <= Y391 <= 50
 0 <= Y392 <= 50
 0 <= Y393 <= 50
 0 <= Y394 <= 50
 0 <= Y395 <= 50
 0 <= Y396 <= 50
 0 <= Y397 <= 50
 0 <= Y398 <= 50
 0 <= Y399 <= 50
 0 <= Y400 <= 50
 0 <= Y401 <= 50
 0 <= Y402 <= 50
 0 <= Y403 <= 50
 0 <= Y404 <= 50
 0 <= Y405 <= 50
 0 <= Y406 <= 50
 0 <= Y407 <= 50
 0 <= Y408 <= 50
 0 <= Y409 <= 50
 0 <= Y410 <= 50
 0 <= Y411 <= 50
 0 <= Y412 <= 50
 0 <= Y413 <= 50
 0 <= Y414 <= 50
 0 <= Y415 <= 50
Generals
Y208
Y209
Y210
Y211
Y212
Y213
Y214
Y215
Y216
Y217
Y218
Y219
Y220
Y221
Y222
Y223
Y224
Y225
Y226
Y227
Y228
Y229
Y230
Y231
Y232
Y233
Y234
Y235
Y236
Y237
Y238
Y239
Y240
Y241
Y242
Y243
Y244
Y245
Y246
Y247
Y248
Y249
Y250
Y251
Y252
Y253
Y254
Y255
Y256
Y257
Y258
Y259
Y260
Y261
Y262
Y263
Y264
Y265
Y266
Y267
Y268
Y269
Y270
Y271
Y272
Y273
Y274
Y275
Y276
Y277
Y278
Y279
Y280
Y281
Y282
Y283
Y284
Y285
Y286
Y287
Y288
Y289
Y290
Y291
Y292
Y293
Y294
Y295
Y296
Y297
Y298
Y299
Y300
Y301
Y302
Y303
Y304
Y305
Y306
Y307
Y308
Y309
Y310
Y311
Y312
Y313
Y314
Y315
Y316
Y317
Y318
Y319
Y320
Y321
Y322
Y323
Y324
Y325
Y326
Y327
Y328
Y329
Y330
Y331
Y332
Y333
Y334
Y335
Y336
Y337
Y338
Y339
Y340
Y341
Y342
Y343
Y344
Y345
Y346
Y347
Y348
Y349
Y350
Y351
Y352
Y353
Y354
Y355
Y356
Y357
Y358
Y359
Y360
Y361
Y362
Y363
Y364
Y365
Y366
Y367
Y368
Y369
Y370
Y371
Y372
Y373
Y374
Y375
Y376
Y377
Y378
Y379
Y380
Y381
Y382
Y383
Y384
Y385
Y386
Y387
Y388
Y389
Y390
Y391
Y392
Y393
Y394
Y395
Y396
Y397
Y398
Y399
Y400
Y401
Y402
Y403
Y404
Y405
Y406
Y407
Y408
Y409
Y410
Y411
Y412
Y413
Y414
Y415
Binaries
X0
X1
X10
X100
X101
X102
X103
X104
X105
X106
X107
X108
X109
X11
X110
X111
X112
X113
X114
X115
X116
X117
X118
X119
X12
X120
X121
X122
X123
X124
X125
X126
X127
X128
X129
X13
X130
X131
X132
X133
X134
X135
X136
X137
X138
X139
X14
X140
X141
X142
X143
X144
X145
X146
X147
X148
X149
X15
X150
X151
X152
X153
X154
X155
X156
X157
X158
X159
X16
X160
X161
X162
X163
X164
X165
X166
X167
X168
X169
X17
X170
X171
X172
X173
X174
X175
X176
X177
X178
X179
X18
X180
X181
X182
X183
X184
X185
X186
X187
X188
X189
X19
X190
X191
X192
X193
X194
X195
X196
X197
X198
X199
X2
X20
X200
X201
X202
X203
X204
X205
X206
X207
X21
X22
X23
X24
X25
X26
X27
X28
X29
X3
X30
X31
X32
X33
X34
X35
X36
X37
X38
X39
X4
X40
X41
X42
X43
X44
X45
X46
X47
X48
X49
X5
X50
X51
X52
X53
X54
X55
X56
X57
X58
X59
X6
X60
X61
X62
X63
X64
X65
X66
X67
X68
X69
X7
X70
X71
X72
X73
X74
X75
X76
X77
X78
X79
X8
X80
X81
X82
X83
X84
X85
X86
X87
X88
X89
X9
X90
X91
X92
X93
X94
X95
X96
X97
X98
X99
End
